decision_x1=[0,4];
decision_x2=[0,4];
decision_x3=[0,4];
decision_x4=[0,4];
decision_x5=[0,4];
decision_x6=[0,4];
decision_x7=[0,4];
decision_x8=[0,4];
decision_x9=[0,4];
decision_x10=[0,4];
random_y1=[0,4];
random_y2=[0,4];
random_y3=[0,4];
random_y4=[0,4];
random_y5=[0,4];
random_y6=[0,4];
random_y7=[0,4];
random_y8=[0,4];
random_y9=[0,4];
random_y10=[0,4];
constraint_x2_x1=[
0,0,57|
0,1,82|
0,2,8.1|
0,3,73|
0,4,13|
1,0,81|
1,1,27|
1,2,28|
1,3,7.7|
1,4,30|
2,0,23|
2,1,32|
2,2,42|
2,3,84|
2,4,43|
3,0,29|
3,1,75|
3,2,15|
3,3,21|
3,4,69|
4,0,42|
4,1,40|
4,2,41|
4,3,9.4|
4,4,65|
];
constraint_x3_x1=[
0,0,9.8|
0,1,80|
0,2,35|
0,3,86|
0,4,22|
1,0,8.7|
1,1,66|
1,2,62|
1,3,62|
1,4,95|
2,0,10|
2,1,1e+02|
2,2,5.1|
2,3,15|
2,4,16|
3,0,68|
3,1,78|
3,2,85|
3,3,14|
3,4,99|
4,0,66|
4,1,81|
4,2,63|
4,3,41|
4,4,39|
];
constraint_x4_x2=[
0,0,77|
0,1,58|
0,2,2|
0,3,3.5|
0,4,42|
1,0,56|
1,1,33|
1,2,72|
1,3,85|
1,4,20|
2,0,82|
2,1,59|
2,2,79|
2,3,31|
2,4,85|
3,0,39|
3,1,11|
3,2,74|
3,3,98|
3,4,52|
4,0,11|
4,1,56|
4,2,54|
4,3,33|
4,4,61|
];
constraint_x5_x3=[
0,0,93|
0,1,91|
0,2,92|
0,3,97|
0,4,38|
1,0,8.7|
1,1,11|
1,2,75|
1,3,1.9|
1,4,26|
2,0,66|
2,1,88|
2,2,10|
2,3,95|
2,4,93|
3,0,34|
3,1,18|
3,2,13|
3,3,68|
3,4,85|
4,0,9.2|
4,1,42|
4,2,70|
4,3,73|
4,4,51|
];
constraint_x6_x4=[
0,0,58|
0,1,45|
0,2,34|
0,3,63|
0,4,64|
1,0,53|
1,1,85|
1,2,73|
1,3,95|
1,4,32|
2,0,68|
2,1,42|
2,2,75|
2,3,78|
2,4,76|
3,0,8.5|
3,1,87|
3,2,61|
3,3,80|
3,4,39|
4,0,70|
4,1,51|
4,2,31|
4,3,20|
4,4,91|
];
constraint_x7_x1=[
0,0,19|
0,1,20|
0,2,92|
0,3,33|
0,4,83|
1,0,0.25|
1,1,30|
1,2,20|
1,3,43|
1,4,98|
2,0,56|
2,1,5.6|
2,2,8.1|
2,3,21|
2,4,81|
3,0,68|
3,1,17|
3,2,15|
3,3,33|
3,4,85|
4,0,47|
4,1,36|
4,2,95|
4,3,50|
4,4,63|
];
constraint_x7_x3=[
0,0,86|
0,1,54|
0,2,58|
0,3,41|
0,4,50|
1,0,28|
1,1,39|
1,2,4.7|
1,3,54|
1,4,68|
2,0,90|
2,1,63|
2,2,30|
2,3,94|
2,4,86|
3,0,96|
3,1,93|
3,2,6.7|
3,3,76|
3,4,39|
4,0,5.1|
4,1,8.3|
4,2,29|
4,3,63|
4,4,34|
];
constraint_x7_x4=[
0,0,79|
0,1,26|
0,2,54|
0,3,53|
0,4,82|
1,0,39|
1,1,78|
1,2,33|
1,3,1.6|
1,4,59|
2,0,22|
2,1,29|
2,2,74|
2,3,41|
2,4,1e+02|
3,0,96|
3,1,64|
3,2,70|
3,3,22|
3,4,91|
4,0,73|
4,1,33|
4,2,15|
4,3,84|
4,4,54|
];
constraint_x7_x5=[
0,0,88|
0,1,77|
0,2,33|
0,3,91|
0,4,99|
1,0,20|
1,1,0.011|
1,2,81|
1,3,67|
1,4,18|
2,0,60|
2,1,98|
2,2,22|
2,3,19|
2,4,64|
3,0,40|
3,1,11|
3,2,59|
3,3,63|
3,4,38|
4,0,1.5|
4,1,56|
4,2,14|
4,3,24|
4,4,62|
];
constraint_x7_x6=[
0,0,3.6|
0,1,80|
0,2,27|
0,3,54|
0,4,12|
1,0,56|
1,1,47|
1,2,2.6|
1,3,93|
1,4,48|
2,0,54|
2,1,28|
2,2,1e+02|
2,3,60|
2,4,50|
3,0,68|
3,1,1.6|
3,2,93|
3,3,54|
3,4,4|
4,0,85|
4,1,48|
4,2,26|
4,3,93|
4,4,42|
];
constraint_x8_x1=[
0,0,21|
0,1,51|
0,2,32|
0,3,72|
0,4,17|
1,0,66|
1,1,79|
1,2,23|
1,3,45|
1,4,4.9|
2,0,63|
2,1,48|
2,2,30|
2,3,49|
2,4,15|
3,0,1e+02|
3,1,84|
3,2,94|
3,3,31|
3,4,64|
4,0,92|
4,1,71|
4,2,13|
4,3,39|
4,4,48|
];
constraint_x8_x3=[
0,0,36|
0,1,90|
0,2,59|
0,3,18|
0,4,30|
1,0,88|
1,1,91|
1,2,54|
1,3,36|
1,4,29|
2,0,57|
2,1,11|
2,2,45|
2,3,29|
2,4,16|
3,0,0.29|
3,1,75|
3,2,11|
3,3,70|
3,4,71|
4,0,59|
4,1,41|
4,2,34|
4,3,63|
4,4,24|
];
constraint_x8_x5=[
0,0,91|
0,1,20|
0,2,78|
0,3,94|
0,4,40|
1,0,54|
1,1,98|
1,2,64|
1,3,90|
1,4,18|
2,0,83|
2,1,49|
2,2,23|
2,3,73|
2,4,11|
3,0,14|
3,1,50|
3,2,64|
3,3,42|
3,4,75|
4,0,44|
4,1,22|
4,2,63|
4,3,42|
4,4,62|
];
constraint_x8_x6=[
0,0,93|
0,1,63|
0,2,70|
0,3,15|
0,4,49|
1,0,52|
1,1,57|
1,2,67|
1,3,40|
1,4,82|
2,0,97|
2,1,4.9|
2,2,50|
2,3,12|
2,4,8.3|
3,0,69|
3,1,56|
3,2,73|
3,3,89|
3,4,91|
4,0,72|
4,1,69|
4,2,43|
4,3,5.5|
4,4,63|
];
constraint_x9_x3=[
0,0,26|
0,1,82|
0,2,22|
0,3,44|
0,4,88|
1,0,44|
1,1,29|
1,2,78|
1,3,13|
1,4,85|
2,0,89|
2,1,35|
2,2,52|
2,3,45|
2,4,10|
3,0,55|
3,1,20|
3,2,34|
3,3,26|
3,4,99|
4,0,1.6|
4,1,6.2|
4,2,64|
4,3,52|
4,4,42|
];
constraint_x9_x4=[
0,0,34|
0,1,35|
0,2,2.5|
0,3,71|
0,4,93|
1,0,11|
1,1,1e+02|
1,2,41|
1,3,80|
1,4,28|
2,0,82|
2,1,40|
2,2,53|
2,3,72|
2,4,56|
3,0,43|
3,1,83|
3,2,76|
3,3,39|
3,4,78|
4,0,64|
4,1,97|
4,2,84|
4,3,84|
4,4,61|
];
constraint_x9_x6=[
0,0,15|
0,1,59|
0,2,43|
0,3,34|
0,4,99|
1,0,36|
1,1,54|
1,2,97|
1,3,24|
1,4,60|
2,0,46|
2,1,64|
2,2,27|
2,3,57|
2,4,81|
3,0,58|
3,1,88|
3,2,89|
3,3,64|
3,4,44|
4,0,23|
4,1,4.3|
4,2,83|
4,3,8|
4,4,23|
];
constraint_x10_x1=[
0,0,67|
0,1,66|
0,2,90|
0,3,13|
0,4,76|
1,0,28|
1,1,40|
1,2,10|
1,3,36|
1,4,12|
2,0,73|
2,1,14|
2,2,90|
2,3,74|
2,4,10|
3,0,37|
3,1,62|
3,2,98|
3,3,65|
3,4,28|
4,0,59|
4,1,20|
4,2,49|
4,3,88|
4,4,25|
];
constraint_x10_x2=[
0,0,87|
0,1,9.6|
0,2,3.2|
0,3,88|
0,4,81|
1,0,37|
1,1,41|
1,2,56|
1,3,65|
1,4,79|
2,0,87|
2,1,64|
2,2,76|
2,3,56|
2,4,30|
3,0,59|
3,1,77|
3,2,75|
3,3,67|
3,4,88|
4,0,37|
4,1,21|
4,2,32|
4,3,23|
4,4,10|
];
constraint_x10_x4=[
0,0,91|
0,1,17|
0,2,59|
0,3,78|
0,4,23|
1,0,24|
1,1,1e+02|
1,2,15|
1,3,2.2|
1,4,83|
2,0,51|
2,1,83|
2,2,17|
2,3,48|
2,4,68|
3,0,1e+02|
3,1,79|
3,2,46|
3,3,20|
3,4,38|
4,0,71|
4,1,24|
4,2,49|
4,3,84|
4,4,52|
];
constraint_x10_x5=[
0,0,55|
0,1,26|
0,2,90|
0,3,34|
0,4,51|
1,0,27|
1,1,4.3|
1,2,23|
1,3,9.3|
1,4,39|
2,0,8.5|
2,1,83|
2,2,6.1|
2,3,30|
2,4,55|
3,0,72|
3,1,89|
3,2,21|
3,3,85|
3,4,51|
4,0,49|
4,1,1.3|
4,2,96|
4,3,24|
4,4,70|
];
constraint_x10_x6=[
0,0,52|
0,1,37|
0,2,77|
0,3,64|
0,4,11|
1,0,83|
1,1,73|
1,2,76|
1,3,71|
1,4,94|
2,0,86|
2,1,27|
2,2,4.1|
2,3,25|
2,4,82|
3,0,38|
3,1,43|
3,2,58|
3,3,2.6|
3,4,7.9|
4,0,14|
4,1,51|
4,2,32|
4,3,59|
4,4,35|
];
constraint_x10_x9=[
0,0,94|
0,1,14|
0,2,45|
0,3,9.2|
0,4,80|
1,0,4.4|
1,1,65|
1,2,42|
1,3,44|
1,4,87|
2,0,40|
2,1,36|
2,2,49|
2,3,10|
2,4,0.8|
3,0,38|
3,1,51|
3,2,36|
3,3,89|
3,4,60|
4,0,1.6|
4,1,22|
4,2,55|
4,3,19|
4,4,22|
];
constraint_x1_y1=[
0,0,46|
0,1,17|
0,2,14|
0,3,87|
0,4,65|
1,0,83|
1,1,19|
1,2,86|
1,3,6.8|
1,4,46|
2,0,94|
2,1,37|
2,2,55|
2,3,51|
2,4,46|
3,0,95|
3,1,87|
3,2,42|
3,3,94|
3,4,87|
4,0,99|
4,1,54|
4,2,92|
4,3,69|
4,4,33|
];
constraint_x2_y2=[
0,0,79|
0,1,72|
0,2,52|
0,3,29|
0,4,83|
1,0,24|
1,1,20|
1,2,9.8|
1,3,5.3|
1,4,26|
2,0,5.6|
2,1,70|
2,2,96|
2,3,61|
2,4,7.4|
3,0,9.9|
3,1,83|
3,2,75|
3,3,29|
3,4,32|
4,0,78|
4,1,89|
4,2,53|
4,3,55|
4,4,78|
];
constraint_x3_y3=[
0,0,92|
0,1,14|
0,2,12|
0,3,63|
0,4,96|
1,0,25|
1,1,88|
1,2,16|
1,3,5|
1,4,0.56|
2,0,56|
2,1,56|
2,2,48|
2,3,19|
2,4,61|
3,0,20|
3,1,57|
3,2,72|
3,3,38|
3,4,17|
4,0,44|
4,1,26|
4,2,57|
4,3,79|
4,4,95|
];
constraint_x4_y4=[
0,0,81|
0,1,44|
0,2,39|
0,3,57|
0,4,76|
1,0,57|
1,1,43|
1,2,1e+02|
1,3,58|
1,4,3.2|
2,0,23|
2,1,85|
2,2,56|
2,3,62|
2,4,42|
3,0,53|
3,1,47|
3,2,92|
3,3,30|
3,4,0.94|
4,0,17|
4,1,13|
4,2,36|
4,3,66|
4,4,47|
];
constraint_x5_y5=[
0,0,79|
0,1,77|
0,2,38|
0,3,1.3|
0,4,48|
1,0,92|
1,1,6.2|
1,2,22|
1,3,56|
1,4,43|
2,0,80|
2,1,89|
2,2,32|
2,3,52|
2,4,12|
3,0,31|
3,1,55|
3,2,62|
3,3,21|
3,4,90|
4,0,3.8|
4,1,47|
4,2,35|
4,3,91|
4,4,61|
];
constraint_x6_y6=[
0,0,20|
0,1,42|
0,2,56|
0,3,50|
0,4,86|
1,0,79|
1,1,86|
1,2,66|
1,3,54|
1,4,20|
2,0,80|
2,1,60|
2,2,7.1|
2,3,19|
2,4,8.7|
3,0,48|
3,1,70|
3,2,15|
3,3,24|
3,4,21|
4,0,96|
4,1,96|
4,2,35|
4,3,60|
4,4,84|
];
constraint_x7_y7=[
0,0,44|
0,1,32|
0,2,71|
0,3,62|
0,4,78|
1,0,36|
1,1,4.9|
1,2,19|
1,3,71|
1,4,60|
2,0,61|
2,1,76|
2,2,31|
2,3,58|
2,4,26|
3,0,26|
3,1,90|
3,2,98|
3,3,2.6|
3,4,16|
4,0,75|
4,1,81|
4,2,80|
4,3,2.2|
4,4,12|
];
constraint_x8_y8=[
0,0,33|
0,1,41|
0,2,47|
0,3,42|
0,4,89|
1,0,49|
1,1,65|
1,2,51|
1,3,40|
1,4,98|
2,0,98|
2,1,23|
2,2,86|
2,3,2.3|
2,4,90|
3,0,84|
3,1,88|
3,2,37|
3,3,5.5|
3,4,93|
4,0,8.6|
4,1,87|
4,2,52|
4,3,26|
4,4,57|
];
constraint_x9_y9=[
0,0,22|
0,1,21|
0,2,39|
0,3,91|
0,4,88|
1,0,71|
1,1,93|
1,2,83|
1,3,91|
1,4,82|
2,0,14|
2,1,34|
2,2,26|
2,3,75|
2,4,35|
3,0,8.4|
3,1,91|
3,2,7.2|
3,3,63|
3,4,78|
4,0,67|
4,1,7.9|
4,2,58|
4,3,0.23|
4,4,99|
];
constraint_x10_y10=[
0,0,98|
0,1,39|
0,2,75|
0,3,56|
0,4,21|
1,0,92|
1,1,71|
1,2,1.6|
1,3,55|
1,4,16|
2,0,48|
2,1,84|
2,2,37|
2,3,64|
2,4,72|
3,0,98|
3,1,93|
3,2,73|
3,3,58|
3,4,78|
4,0,59|
4,1,78|
4,2,11|
4,3,92|
4,4,62|
];
initial_distribution_y1=[0.18,0.13,0.14,0.3,0.25];
initial_distribution_y2=[0.24,0.08,0.33,0.15,0.2];
initial_distribution_y3=[0.16,0.3,0.27,0.058,0.22];
initial_distribution_y4=[0.22,0.25,0.23,0.14,0.16];
initial_distribution_y5=[0.095,0.011,0.26,0.45,0.18];
initial_distribution_y6=[0.2,0.17,0.12,0.25,0.25];
initial_distribution_y7=[0.13,0.22,0.33,0.16,0.16];
initial_distribution_y8=[0.098,0.23,0.21,0.21,0.25];
initial_distribution_y9=[0.13,0.059,0.32,0.017,0.47];
initial_distribution_y10=[0.16,0.13,0.19,0.12,0.4];
transition_y1=[
0.18,0.035,0.072,0.51,0.21|
0.032,0.08,0.42,0.088,0.38|
0.33,0.1,0.24,0.17,0.16|
0.33,0.19,0.12,0.067,0.29|
0.26,0.047,0.16,0.46,0.078|
];
transition_y2=[
0.11,0.3,0.09,0.21,0.29|
0.29,0.25,0.32,0.11,0.026|
0.072,0.22,0.36,0.077,0.27|
0.3,0.17,0.16,0.32,0.047|
0.021,0.09,0.37,0.4,0.11|
];
transition_y3=[
0.065,0.17,0.28,0.41,0.083|
0.036,0.12,0.2,0.33,0.31|
0.2,0.19,0.27,0.22,0.12|
0.12,0.17,0.45,0.18,0.088|
0.12,0.24,0.077,0.31,0.25|
];
transition_y4=[
0.42,0.098,0.25,0.15,0.08|
0.019,0.22,0.29,0.2,0.27|
0.2,0.26,0.31,0.085,0.14|
0.14,0.29,0.2,0.074,0.29|
0.29,0.15,0.28,0.15,0.13|
];
transition_y5=[
0.069,0.014,0.25,0.34,0.32|
0.15,0.32,0.32,0.055,0.15|
0.22,0.34,0.052,0.34,0.052|
0.065,0.11,0.42,0.37,0.032|
0.21,0.22,0.11,0.27,0.19|
];
transition_y6=[
0.24,0.15,0.18,0.23,0.2|
0.49,0.19,0.23,0.046,0.046|
0.18,0.032,0.4,0.38,0.006|
0.15,0.1,0.25,0.2,0.29|
0.26,0.2,0.26,0.16,0.12|
];
transition_y7=[
0.22,0.18,0.14,0.2,0.27|
0.17,0.29,0.038,0.19,0.31|
0.3,0.25,0.26,0.068,0.13|
0.097,0.26,0.14,0.14,0.36|
0.014,0.57,0.14,0.091,0.19|
];
transition_y8=[
0.27,0.32,0.14,0.18,0.082|
0.21,0.068,0.13,0.29,0.3|
0.18,0.12,0.3,0.18,0.21|
0.12,0.22,0.2,0.32,0.14|
0.0059,0.41,0.29,0.15,0.14|
];
transition_y9=[
0.14,0.23,0.12,0.49,0.019|
0.23,0.19,0.33,0.22,0.021|
0.14,0.081,0.32,0.33,0.14|
0.07,0.076,0.26,0.53,0.064|
0.09,0.069,0.38,0.42,0.045|
];
transition_y10=[
0.023,0.26,0.28,0.25,0.19|
0.35,0.27,0.26,0.1,0.023|
0.29,0.34,0.18,0.098,0.085|
0.16,0.33,0.19,0.29,0.029|
0.24,0.077,0.022,0.33,0.33|
];
